c FILE:  brock200_1.b
c
c Graph Generator
c
c By: Mark Brockington (brock@cs.ualberta.ca)
c and Joe Culberson (joe@cs.ualberta.ca)
c
c Graph Size:200, Clique Size: 21
c Seed:0, Edge Density:  0.75000
c Depth 1 Hiding
c
c Clique Elements are:
c 133 17 92 177 38 19 84 134 107 89 
c 185 91 67 141 149 72 101 135 86 93 
c 80 
c
c Estimated Size of Uncompressed File:   0.1MB
c
p edge 200 14834